NAME: Sampled Nodes from P-n76-k4.vrp
COMMENT : no more to talk
TYPE: CVRP
DIMENSION: 30
EDGE_WEIGHT_TYPE: EUC_2D
CAPACITY: 350
NODE_COORD_SECTION
1 40.00 40.00
2 35.00 60.00
3 29.00 39.00
4 40.00 37.00
5 41.00 46.00
6 62.00 48.00
7 40.00 66.00
8 12.00 17.00
9 38.00 33.00
10 70.00 64.00
11 33.00 44.00
12 54.00 38.00
13 36.00 26.00
14 67.00 41.00
15 20.00 30.00
16 55.00 45.00
17 55.00 34.00
18 66.00 8.00
19 11.00 28.00
20 64.00 4.00
21 33.00 34.00
22 21.00 48.00
23 26.00 29.00
24 36.00 6.00
25 30.00 20.00
26 26.00 13.00
27 31.00 76.00
28 50.00 4.00
29 50.00 30.00
30 22.00 53.00
DEMAND_SECTION
1 0
2 1
3 12
4 20
5 18
6 15
7 26
8 15
9 10
10 24
11 20
12 19
13 26
14 16
15 11
16 16
17 17
18 11
19 6
20 13
21 19
22 17
23 27
24 15
25 18
26 12
27 25
28 8
29 21
30 28
DEPOT_SECTION
1
-1
EOF
